set vertices := 1 2 3 4 5;

param value:   1   2   3   4   5 :=
         1     0   3    7   2   8
         2     0   0    2   9   8
         3     0   0    0   7   1
         4     0   0    0   0   2
         5     0   0    0   0   0  ;
